bench/sll0a/entl/bolognesa-11-e02.tptp.smt2
(set-logic QF_S)
(set-info :source |
A. Rybalchenko and J. A. Navarro Perez.
[Separation Logic + Superposition Calculus = Heap Theorem Prover]
[PLDI 2011]
http://navarroj.com/research/papers.html#pldi11
|)
(set-info :smt-lib-version 2.0)
(set-info :category "random") 
(set-info :status unknown)
(set-info :version "2014-05-28")

(set-logic QF_NOLL)

(declare-sort Sll_t 0)

(declare-fun f () (Field Sll_t Sll_t))

(define-fun ls ((?in Sll_t) (?out Sll_t)) Space
(tospace (or (= ?in ?out)
(exists ((?u Sll_t))
(and (distinct ?in ?out) (tobool
(ssep (pto ?in (ref f ?u)) (ls ?u ?out)
)))))))

(declare-fun x_emp () Sll_t)
(declare-fun y_emp () Sll_t)
(declare-fun z_emp () Sll_t)
(declare-fun t_emp () Sll_t)
(declare-fun x0 () Sll_t)
(declare-fun x1 () Sll_t)
(declare-fun x2 () Sll_t)
(declare-fun x3 () Sll_t)
(declare-fun x4 () Sll_t)
(declare-fun x5 () Sll_t)
(declare-fun x6 () Sll_t)
(declare-fun x7 () Sll_t)
(declare-fun x8 () Sll_t)
(declare-fun x9 () Sll_t)
(declare-fun x10 () Sll_t)
(declare-fun x11 () Sll_t)
(declare-fun x12 () Sll_t)
(declare-fun x13 () Sll_t)
(declare-fun x14 () Sll_t)
(declare-fun x15 () Sll_t)
(assert
  (and 
    (= nil nil)
    (tobool  (ssep  (pto x7  (ref f x1 ) ) (ssep  (pto x11  (ref f x7 ) ) (ssep  (pto x9  (ref f x8 ) ) (ssep  (ls x4 x9 ) (ssep  (pto x8  (ref f x5 ) ) (ssep  (pto x1  (ref f x4 ) ) (ssep  (ls x10 x2 ) (ssep  (pto x5  (ref f x6 ) ) (ssep  (ls x3 x2 ) (ssep  (pto x6  (ref f x5 ) ) (ssep  (pto x2  (ref f x6 ) )(ssep (pto x_emp (ref f y_emp)) (pto z_emp (ref f t_emp)))))))))))))))
  )
)
(assert
  (not
        (tobool  (ssep  (ls x11 x7 ) (ssep  (ls x7 x9 ) (ssep  (ls x9 x5 ) (ssep  (ls x3 x2 ) (ssep  (ls x5 x6 ) (ssep  (ls x10 x5 )(ssep (pto x_emp (ref f y_emp)) (pto z_emp (ref f t_emp))))))))))
  ))

(check-sat)
