solvers/asterix/bench/ls/entl/bolognesa-11-e02.tptp
%------------------------------------------------------------------------------
% File     : 
% Domain   : Separation Logic
% Problem  : Randomly generated entailment of the form F -> G (n = 11)
% Version  : 
% English  : A randomly generated entailment with n program variables.
%            A random graph with pointers and list segments is generated,
%            and then some of the segments are folded. The task is to
%            prove whether the unfolded version entails the folded one.
%            Parameters are chosen so that about half of the generated
%            entailments are valid.
%            These entailments stress the role of unfolding axioms.

% Refs     : [NV11] Navarro (2011), Separation Logic + Superposition Calculus
% Source   : [NV11]
% Names    :

% Status   : 
% Syntax   : 
% SPC      : 

% Comments :
%------------------------------------------------------------------------------
%====Include axioms for Lists in Separation Logic
include('Axioms/SepLogicLists.ax').

cnf(premise_1,hypothesis,
    ( heap(sep(next(x7, x1), sep(next(x11, x7), sep(next(x9, x8), sep(ls(x4, x9), sep(next(x8, x5), sep(next(x1, x4), sep(ls(x10, x2), sep(next(x5, x6), sep(ls(x3, x2), sep(next(x6, x5), sep(next(x2, x6), emp)))))))))))) )).

cnf(conclusion_1,negated_conjecture,
    ( ~ heap(sep(ls(x11, x7), sep(ls(x7, x9), sep(ls(x9, x5), sep(ls(x3, x2), sep(ls(x5, x6), sep(ls(x10, x5), emp))))))) )).

